Read MPS format model from file dat/rmp/4node-base_1024_26.mps
Reading time = 0.08 seconds
: 1084 rows, 6197 columns, 226873 nonzeros
Gurobi Optimizer version 9.0.0 build v9.0.0rc2 (linux64)
Optimize a model with 1084 rows, 6197 columns and 226873 nonzeros
Model fingerprint: 0x2e6aa4ad
Coefficient statistics:
  Matrix range     [6e-03, 2e+01]
  Objective range  [7e-02, 1e+04]
  Bounds range     [0e+00, 0e+00]
  RHS range        [1e+00, 8e+01]
Ordering time: 0.00s

Barrier statistics:
 AA' NZ     : 5.429e+04
 Factor NZ  : 6.770e+04 (roughly 3 MBytes of memory)
 Factor Ops : 4.404e+06 (less than 1 second per iteration)
 Threads    : 1

                  Objective                Residual
Iter       Primal          Dual         Primal    Dual     Compl     Time
   0   1.89488673e+07  0.00000000e+00  5.20e+02 2.40e+02  4.95e+04     0s
   1   5.87088892e+05 -6.60824759e+06  1.49e+01 9.53e+02  2.61e+03     0s
   2   6.85299201e+03 -2.76461792e+06  1.91e-02 1.59e+01  4.52e+02     0s
   3   1.55300968e+03 -4.54366532e+05  3.57e-03 2.12e+00  7.42e+01     0s
   4  -1.46793892e+02 -4.51289930e+04  9.23e-06 2.06e-01  7.31e+00     0s
   5  -2.88109959e+02 -2.13825568e+03  7.20e-07 6.12e-03  3.00e-01     0s
   6  -3.37348523e+02 -6.60651522e+02  1.22e-07 5.43e-04  5.23e-02     0s
   7  -3.66798525e+02 -4.73614017e+02  1.07e-08 3.23e-05  1.73e-02     0s
   8  -3.99641268e+02 -4.31851834e+02  5.13e-09 5.43e-07  5.20e-03     0s
   9  -4.16711696e+02 -4.25439327e+02  1.93e-07 8.99e-07  1.41e-03     0s
  10  -4.21332702e+02 -4.23659043e+02  5.28e-06 1.69e-07  3.76e-04     0s
  11  -4.22862389e+02 -4.23092305e+02  1.48e-06 8.67e-09  3.71e-05     0s
  12  -4.22862406e+02 -4.23086802e+02  1.39e-06 7.88e-09  3.62e-05     0s
  13  -4.22862551e+02 -4.23054656e+02  1.66e-06 1.12e-09  3.10e-05     0s
  14  -4.22862606e+02 -4.23051813e+02  2.18e-06 9.68e-10  3.05e-05     0s
  15  -4.22862661e+02 -4.23049696e+02  2.56e-06 8.17e-10  3.02e-05     0s
  16  -4.22862627e+02 -4.23048127e+02  2.31e-06 7.56e-10  2.99e-05     0s
  17  -4.22862819e+02 -4.23045424e+02  3.26e-06 4.72e-10  2.95e-05     0s
  18  -4.22863157e+02 -4.23041459e+02  6.65e-06 1.52e-11  2.88e-05     0s
  19  -4.22863303e+02 -4.23041303e+02  9.85e-06 1.46e-11  2.87e-05     0s
  20  -4.22863639e+02 -4.23043757e+02  1.09e-05 2.15e-10  2.91e-05     0s
  21  -4.22863372e+02 -4.23043256e+02  1.46e-05 2.14e-10  2.90e-05     0s
  22  -4.22863946e+02 -4.23042119e+02  2.02e-05 1.39e-10  2.87e-05     0s
  23  -4.22864664e+02 -4.23040305e+02  2.79e-05 9.99e-11  2.83e-05     0s
  24  -4.22865292e+02 -4.23039004e+02  7.08e-05 6.86e-11  2.80e-05     0s
  25  -4.22866465e+02 -4.23037964e+02  7.49e-05 5.34e-11  2.76e-05     0s
  26  -4.22870175e+02 -4.23037091e+02  7.18e-05 6.73e-11  2.69e-05     0s
  27  -4.22873465e+02 -4.23036492e+02  1.14e-04 4.52e-11  2.63e-05     1s
  28  -4.22876935e+02 -4.23036333e+02  1.67e-04 5.08e-11  2.58e-05     1s
  29  -4.22881623e+02 -4.23034873e+02  2.22e-04 7.07e-11  2.46e-05     1s
  30  -4.22896428e+02 -4.23034790e+02  3.89e-04 4.36e-11  2.25e-05     1s
  31  -4.22895571e+02 -4.23034496e+02  4.48e-04 3.63e-11  2.16e-05     1s
  32  -4.22906615e+02 -4.23034336e+02  6.42e-04 5.68e-11  1.99e-05     1s
  33  -4.22946976e+02 -4.23033966e+02  1.12e-03 1.76e-11  1.44e-05     1s
  34  -4.22999086e+02 -4.23033834e+02  1.03e-03 1.46e-11  5.73e-06     1s
  35  -4.23008060e+02 -4.23033663e+02  9.65e-04 1.46e-11  4.98e-06     1s
  36  -4.23022858e+02 -4.23033615e+02  1.21e-03 1.46e-11  2.83e-06     1s
  37  -4.23021794e+02 -4.23033492e+02  1.33e-03 1.46e-11  2.68e-06     1s
  38  -4.23027557e+02 -4.23033438e+02  1.16e-03 1.46e-11  1.91e-06     1s
  39  -4.23036338e+02 -4.23033545e+02  1.06e-03 1.46e-11  1.69e-06     1s
  40  -4.23037803e+02 -4.23033551e+02  1.15e-03 1.46e-11  1.65e-06     1s
  41  -4.23028590e+02 -4.23033503e+02  9.32e-04 1.46e-11  1.48e-06     1s
  42  -4.23029178e+02 -4.23033070e+02  1.18e-03 1.46e-11  1.43e-06     1s
  43  -4.23023556e+02 -4.23032772e+02  1.28e-03 2.91e-11  1.41e-06     1s
  44  -4.23037034e+02 -4.23032583e+02  1.08e-03 1.46e-11  3.20e-07     1s
  45  -4.23045541e+02 -4.23032841e+02  1.29e-03 1.46e-11  1.47e-07     1s
  46  -4.23045224e+02 -4.23032871e+02  1.30e-03 1.46e-11  1.45e-07     1s
  47  -4.23037167e+02 -4.23033052e+02  1.28e-03 1.46e-11  1.29e-07     1s
  48  -4.23071497e+02 -4.23033077e+02  1.27e-03 1.46e-11  9.88e-08     1s
  49  -4.23072228e+02 -4.23033071e+02  1.28e-03 1.46e-11  9.86e-08     1s
  50  -4.23068023e+02 -4.23033126e+02  1.56e-03 2.91e-11  4.86e-08     1s
  51  -4.23067773e+02 -4.23033128e+02  1.45e-03 1.46e-11  4.75e-08     1s
  52  -4.23071675e+02 -4.23034517e+02  1.60e-03 1.46e-11  6.50e-08     1s
  53  -4.23047153e+02 -4.23034517e+02  1.45e-03 2.91e-11  5.26e-08     1s
  54  -4.23049520e+02 -4.23034233e+02  1.60e-03 1.46e-11  5.39e-08     1s
  55  -4.23048526e+02 -4.23034244e+02  1.53e-03 1.46e-11  5.26e-08     1s
  56  -4.23029062e+02 -4.23034200e+02  1.75e-03 1.46e-11  2.96e-08     1s
  57  -4.23033152e+02 -4.23034313e+02  1.96e-03 1.46e-11  2.95e-08     1s
  58  -4.23034159e+02 -4.23035027e+02  1.51e-03 1.46e-11  6.69e-08     1s
  59  -4.23005797e+02 -4.23035110e+02  2.40e-03 1.46e-11  5.37e-08     1s
  60  -4.22988552e+02 -4.23035307e+02  2.23e-03 1.46e-11  7.20e-08     1s

Barrier performed 60 iterations in 0.97 seconds
Sub-optimal termination - objective -4.16711696e+02

Solve time: 0.974835274
Barrier iterations: 60
